mapa = [|
         9,9,9,9,9,9,9|
         9,8,8,8,8,8,9|
         9,8,9,0,9,8,9|
         9,8,1,1,1,8,9|
         9,8,9,0,9,8,9|
         9,8,8,8,8,8,9|
         9,9,9,9,9,9,9|];
dimx = 7;
dimy = 7;
filav = 5;
colav = 4;

